wcsp 100 3 501 512409557603043100
3 3 3 3 3 3 3 3 3 3 3 3 3 3 3 3 3 3 3 3 3 3 3 3 3 3 3 3 3 3 3 3 3 3 3 3 3 3 3 3 3 3 3 3 3 3 3 3 3 3 3 3 3 3 3 3 3 3 3 3 3 3 3 3 3 3 3 3 3 3 3 3 3 3 3 3 3 3 3 3 3 3 3 3 3 3 3 3 3 3 3 3 3 3 3 3 3 3 3 3
2 55 69 0 9
0 0 2
0 1 2
0 2 0
1 0 2
1 1 0
1 2 0
2 0 1
2 1 2
2 2 0
2 14 75 0 9
0 0 1
0 1 3
0 2 3
1 0 0
1 1 0
1 2 0
2 0 1
2 1 2
2 2 0
2 9 52 0 9
0 0 0
0 1 3
0 2 0
1 0 1
1 1 0
1 2 3
2 0 2
2 1 1
2 2 0
2 7 17 0 9
0 0 0
0 1 3
0 2 2
1 0 0
1 1 1
1 2 0
2 0 3
2 1 0
2 2 3
2 79 96 0 9
0 0 2
0 1 0
0 2 2
1 0 3
1 1 3
1 2 0
2 0 0
2 1 2
2 2 0
2 25 93 0 9
0 0 0
0 1 1
0 2 3
1 0 3
1 1 1
1 2 0
2 0 3
2 1 0
2 2 0
2 74 90 0 9
0 0 0
0 1 1
0 2 0
1 0 3
1 1 0
1 2 2
2 0 1
2 1 0
2 2 1
2 9 62 0 9
0 0 2
0 1 1
0 2 3
1 0 0
1 1 3
1 2 0
2 0 0
2 1 0
2 2 3
2 5 60 0 9
0 0 0
0 1 0
0 2 0
1 0 2
1 1 2
1 2 1
2 0 0
2 1 1
2 2 3
2 56 96 0 9
0 0 1
0 1 0
0 2 0
1 0 1
1 1 0
1 2 3
2 0 0
2 1 3
2 2 2
2 50 73 0 9
0 0 3
0 1 0
0 2 1
1 0 2
1 1 1
1 2 0
2 0 1
2 1 0
2 2 0
2 38 75 0 9
0 0 0
0 1 1
0 2 0
1 0 2
1 1 0
1 2 0
2 0 2
2 1 1
2 2 1
2 35 60 0 9
0 0 0
0 1 1
0 2 3
1 0 3
1 1 1
1 2 0
2 0 0
2 1 3
2 2 0
2 45 82 0 9
0 0 2
0 1 0
0 2 3
1 0 3
1 1 0
1 2 0
2 0 1
2 1 1
2 2 0
2 0 66 0 9
0 0 1
0 1 2
0 2 3
1 0 0
1 1 1
1 2 0
2 0 0
2 1 2
2 2 0
2 52 99 0 9
0 0 1
0 1 0
0 2 0
1 0 0
1 1 0
1 2 1
2 0 1
2 1 1
2 2 2
2 1 18 0 9
0 0 2
0 1 0
0 2 2
1 0 0
1 1 3
1 2 1
2 0 3
2 1 0
2 2 0
2 39 69 0 9
0 0 3
0 1 1
0 2 2
1 0 0
1 1 1
1 2 0
2 0 0
2 1 2
2 2 0
2 61 79 0 9
0 0 0
0 1 3
0 2 0
1 0 3
1 1 3
1 2 0
2 0 1
2 1 2
2 2 0
2 51 95 0 9
0 0 0
0 1 2
0 2 1
1 0 0
1 1 0
1 2 2
2 0 1
2 1 3
2 2 0
2 4 95 0 9
0 0 0
0 1 0
0 2 1
1 0 1
1 1 0
1 2 2
2 0 2
2 1 3
2 2 0
2 31 95 0 9
0 0 0
0 1 0
0 2 3
1 0 1
1 1 0
1 2 3
2 0 0
2 1 2
2 2 1
2 21 71 0 9
0 0 0
0 1 0
0 2 3
1 0 3
1 1 1
1 2 1
2 0 0
2 1 2
2 2 0
2 53 88 0 9
0 0 0
0 1 2
0 2 1
1 0 3
1 1 2
1 2 1
2 0 0
2 1 0
2 2 0
2 7 73 0 9
0 0 3
0 1 1
0 2 3
1 0 3
1 1 1
1 2 0
2 0 0
2 1 0
2 2 0
2 22 57 0 9
0 0 0
0 1 0
0 2 2
1 0 3
1 1 0
1 2 1
2 0 3
2 1 1
2 2 0
2 20 81 0 9
0 0 1
0 1 3
0 2 0
1 0 2
1 1 0
1 2 1
2 0 1
2 1 0
2 2 0
2 39 91 0 9
0 0 2
0 1 2
0 2 3
1 0 1
1 1 0
1 2 0
2 0 0
2 1 0
2 2 2
2 44 58 0 9
0 0 0
0 1 3
0 2 0
1 0 2
1 1 1
1 2 2
2 0 2
2 1 0
2 2 0
2 70 82 0 9
0 0 1
0 1 0
0 2 1
1 0 0
1 1 0
1 2 3
2 0 1
2 1 0
2 2 2
2 35 85 0 9
0 0 2
0 1 0
0 2 1
1 0 3
1 1 2
1 2 0
2 0 0
2 1 0
2 2 3
2 55 78 0 9
0 0 0
0 1 0
0 2 1
1 0 3
1 1 0
1 2 0
2 0 2
2 1 2
2 2 1
2 6 48 0 9
0 0 2
0 1 1
0 2 0
1 0 0
1 1 0
1 2 1
2 0 0
2 1 2
2 2 2
2 23 95 0 9
0 0 0
0 1 3
0 2 0
1 0 2
1 1 0
1 2 2
2 0 0
2 1 2
2 2 2
2 2 43 0 9
0 0 0
0 1 3
0 2 3
1 0 1
1 1 2
1 2 0
2 0 0
2 1 0
2 2 3
2 23 85 0 9
0 0 0
0 1 0
0 2 1
1 0 3
1 1 1
1 2 1
2 0 0
2 1 0
2 2 3
2 34 42 0 9
0 0 2
0 1 1
0 2 0
1 0 0
1 1 2
1 2 1
2 0 0
2 1 2
2 2 0
2 17 57 0 9
0 0 0
0 1 3
0 2 2
1 0 2
1 1 0
1 2 1
2 0 3
2 1 0
2 2 0
2 16 79 0 9
0 0 2
0 1 0
0 2 0
1 0 1
1 1 2
1 2 2
2 0 1
2 1 0
2 2 0
2 34 49 0 9
0 0 0
0 1 3
0 2 2
1 0 0
1 1 0
1 2 0
2 0 1
2 1 2
2 2 3
2 44 82 0 9
0 0 0
0 1 0
0 2 3
1 0 0
1 1 0
1 2 3
2 0 1
2 1 3
2 2 2
2 19 71 0 9
0 0 0
0 1 0
0 2 2
1 0 1
1 1 2
1 2 1
2 0 0
2 1 1
2 2 0
2 19 72 0 9
0 0 2
0 1 3
0 2 0
1 0 0
1 1 0
1 2 1
2 0 0
2 1 1
2 2 3
2 12 55 0 9
0 0 3
0 1 0
0 2 0
1 0 3
1 1 1
1 2 0
2 0 3
2 1 2
2 2 0
2 20 30 0 9
0 0 1
0 1 0
0 2 0
1 0 2
1 1 1
1 2 3
2 0 0
2 1 0
2 2 2
2 18 34 0 9
0 0 0
0 1 3
0 2 0
1 0 2
1 1 2
1 2 1
2 0 0
2 1 3
2 2 0
2 45 78 0 9
0 0 0
0 1 0
0 2 3
1 0 2
1 1 2
1 2 2
2 0 0
2 1 0
2 2 3
2 12 14 0 9
0 0 1
0 1 0
0 2 1
1 0 0
1 1 2
1 2 0
2 0 2
2 1 3
2 2 0
2 1 96 0 9
0 0 0
0 1 2
0 2 0
1 0 1
1 1 0
1 2 1
2 0 3
2 1 0
2 2 2
2 16 78 0 9
0 0 3
0 1 3
0 2 0
1 0 2
1 1 0
1 2 0
2 0 0
2 1 2
2 2 3
2 48 68 0 9
0 0 1
0 1 0
0 2 3
1 0 0
1 1 0
1 2 0
2 0 2
2 1 1
2 2 1
2 33 43 0 9
0 0 0
0 1 1
0 2 0
1 0 1
1 1 0
1 2 0
2 0 2
2 1 1
2 2 2
2 9 93 0 9
0 0 3
0 1 0
0 2 3
1 0 0
1 1 3
1 2 2
2 0 2
2 1 0
2 2 0
2 6 11 0 9
0 0 0
0 1 0
0 2 3
1 0 2
1 1 1
1 2 0
2 0 3
2 1 0
2 2 2
2 49 66 0 9
0 0 2
0 1 0
0 2 0
1 0 1
1 1 1
1 2 3
2 0 2
2 1 0
2 2 0
2 68 69 0 9
0 0 1
0 1 0
0 2 1
1 0 0
1 1 0
1 2 3
2 0 3
2 1 3
2 2 0
2 0 95 0 9
0 0 0
0 1 3
0 2 0
1 0 3
1 1 2
1 2 2
2 0 3
2 1 0
2 2 0
2 3 86 0 9
0 0 1
0 1 1
0 2 0
1 0 0
1 1 0
1 2 3
2 0 0
2 1 2
2 2 3
2 22 66 0 9
0 0 1
0 1 0
0 2 0
1 0 1
1 1 1
1 2 2
2 0 0
2 1 3
2 2 0
2 49 85 0 9
0 0 0
0 1 0
0 2 2
1 0 3
1 1 3
1 2 0
2 0 3
2 1 0
2 2 1
2 33 56 0 9
0 0 0
0 1 0
0 2 0
1 0 0
1 1 1
1 2 2
2 0 1
2 1 2
2 2 3
2 5 55 0 9
0 0 0
0 1 0
0 2 3
1 0 3
1 1 2
1 2 2
2 0 1
2 1 0
2 2 0
2 14 83 0 9
0 0 3
0 1 2
0 2 3
1 0 0
1 1 0
1 2 0
2 0 0
2 1 3
2 2 3
2 39 68 0 9
0 0 0
0 1 0
0 2 0
1 0 3
1 1 1
1 2 2
2 0 3
2 1 0
2 2 3
2 4 53 0 9
0 0 1
0 1 0
0 2 0
1 0 1
1 1 1
1 2 2
2 0 2
2 1 0
2 2 0
2 5 57 0 9
0 0 3
0 1 3
0 2 0
1 0 0
1 1 2
1 2 2
2 0 0
2 1 0
2 2 2
2 12 75 0 9
0 0 2
0 1 1
0 2 1
1 0 2
1 1 3
1 2 0
2 0 0
2 1 0
2 2 0
2 35 61 0 9
0 0 0
0 1 2
0 2 3
1 0 3
1 1 0
1 2 3
2 0 0
2 1 0
2 2 2
2 19 53 0 9
0 0 3
0 1 1
0 2 2
1 0 0
1 1 0
1 2 3
2 0 1
2 1 0
2 2 0
2 21 61 0 9
0 0 0
0 1 0
0 2 3
1 0 3
1 1 2
1 2 1
2 0 0
2 1 0
2 2 1
2 28 39 0 9
0 0 2
0 1 0
0 2 2
1 0 0
1 1 3
1 2 1
2 0 0
2 1 3
2 2 0
2 21 33 0 9
0 0 3
0 1 0
0 2 0
1 0 1
1 1 3
1 2 0
2 0 3
2 1 1
2 2 0
2 9 45 0 9
0 0 2
0 1 2
0 2 0
1 0 1
1 1 3
1 2 0
2 0 0
2 1 0
2 2 2
2 3 46 0 9
0 0 2
0 1 1
0 2 3
1 0 1
1 1 3
1 2 0
2 0 0
2 1 0
2 2 0
2 9 15 0 9
0 0 2
0 1 3
0 2 1
1 0 0
1 1 0
1 2 0
2 0 2
2 1 0
2 2 1
2 38 81 0 9
0 0 1
0 1 0
0 2 3
1 0 0
1 1 0
1 2 1
2 0 3
2 1 1
2 2 0
2 3 15 0 9
0 0 1
0 1 3
0 2 2
1 0 2
1 1 0
1 2 0
2 0 0
2 1 0
2 2 3
2 54 77 0 9
0 0 0
0 1 3
0 2 0
1 0 2
1 1 0
1 2 3
2 0 3
2 1 0
2 2 1
2 39 46 0 9
0 0 3
0 1 0
0 2 1
1 0 0
1 1 3
1 2 0
2 0 1
2 1 0
2 2 1
2 82 88 0 9
0 0 3
0 1 0
0 2 0
1 0 0
1 1 0
1 2 1
2 0 2
2 1 2
2 2 2
2 66 94 0 9
0 0 2
0 1 1
0 2 0
1 0 1
1 1 1
1 2 1
2 0 0
2 1 0
2 2 0
2 3 13 0 9
0 0 2
0 1 0
0 2 3
1 0 0
1 1 0
1 2 3
2 0 3
2 1 1
2 2 0
2 4 56 0 9
0 0 1
0 1 0
0 2 1
1 0 2
1 1 2
1 2 0
2 0 0
2 1 0
2 2 2
2 57 58 0 9
0 0 2
0 1 2
0 2 0
1 0 1
1 1 2
1 2 0
2 0 2
2 1 0
2 2 0
2 26 79 0 9
0 0 2
0 1 0
0 2 2
1 0 2
1 1 0
1 2 0
2 0 1
2 1 0
2 2 1
2 31 44 0 9
0 0 0
0 1 0
0 2 0
1 0 1
1 1 3
1 2 3
2 0 0
2 1 3
2 2 1
2 60 75 0 9
0 0 2
0 1 2
0 2 1
1 0 0
1 1 1
1 2 0
2 0 2
2 1 0
2 2 0
2 74 87 0 9
0 0 0
0 1 1
0 2 1
1 0 0
1 1 1
1 2 0
2 0 0
2 1 1
2 2 1
2 74 77 0 9
0 0 3
0 1 0
0 2 3
1 0 2
1 1 0
1 2 0
2 0 1
2 1 0
2 2 2
2 9 24 0 9
0 0 1
0 1 0
0 2 3
1 0 0
1 1 0
1 2 0
2 0 2
2 1 2
2 2 1
2 51 86 0 9
0 0 0
0 1 0
0 2 3
1 0 1
1 1 1
1 2 2
2 0 0
2 1 0
2 2 3
2 24 78 0 9
0 0 0
0 1 3
0 2 0
1 0 3
1 1 3
1 2 1
2 0 3
2 1 0
2 2 0
2 68 77 0 9
0 0 3
0 1 3
0 2 0
1 0 0
1 1 3
1 2 0
2 0 1
2 1 3
2 2 0
2 8 52 0 9
0 0 1
0 1 3
0 2 0
1 0 1
1 1 0
1 2 0
2 0 2
2 1 0
2 2 3
2 8 23 0 9
0 0 0
0 1 0
0 2 3
1 0 1
1 1 0
1 2 3
2 0 3
2 1 2
2 2 0
2 6 13 0 9
0 0 2
0 1 0
0 2 2
1 0 0
1 1 2
1 2 0
2 0 3
2 1 3
2 2 0
2 50 90 0 9
0 0 0
0 1 0
0 2 1
1 0 1
1 1 0
1 2 1
2 0 3
2 1 3
2 2 0
2 3 4 0 9
0 0 1
0 1 3
0 2 0
1 0 2
1 1 0
1 2 0
2 0 3
2 1 0
2 2 1
2 48 86 0 9
0 0 2
0 1 0
0 2 0
1 0 3
1 1 3
1 2 3
2 0 0
2 1 0
2 2 3
2 37 71 0 9
0 0 2
0 1 0
0 2 2
1 0 3
1 1 0
1 2 0
2 0 0
2 1 1
2 2 3
2 0 14 0 9
0 0 0
0 1 3
0 2 2
1 0 1
1 1 3
1 2 0
2 0 1
2 1 0
2 2 0
2 37 90 0 9
0 0 3
0 1 3
0 2 0
1 0 0
1 1 0
1 2 3
2 0 3
2 1 0
2 2 3
2 26 36 0 9
0 0 0
0 1 2
0 2 0
1 0 2
1 1 0
1 2 0
2 0 1
2 1 3
2 2 3
2 42 54 0 9
0 0 3
0 1 0
0 2 3
1 0 0
1 1 0
1 2 3
2 0 0
2 1 3
2 2 1
2 71 97 0 9
0 0 1
0 1 2
0 2 3
1 0 0
1 1 2
1 2 0
2 0 0
2 1 3
2 2 0
2 27 66 0 9
0 0 2
0 1 0
0 2 2
1 0 1
1 1 0
1 2 2
2 0 0
2 1 1
2 2 0
2 60 66 0 9
0 0 1
0 1 0
0 2 1
1 0 0
1 1 0
1 2 1
2 0 3
2 1 0
2 2 3
2 52 82 0 9
0 0 0
0 1 2
0 2 2
1 0 3
1 1 0
1 2 3
2 0 0
2 1 0
2 2 3
2 44 85 0 9
0 0 0
0 1 2
0 2 1
1 0 3
1 1 0
1 2 3
2 0 2
2 1 0
2 2 0
2 89 92 0 9
0 0 1
0 1 3
0 2 0
1 0 2
1 1 0
1 2 2
2 0 1
2 1 0
2 2 0
2 3 94 0 9
0 0 2
0 1 0
0 2 0
1 0 3
1 1 0
1 2 3
2 0 3
2 1 3
2 2 0
2 16 99 0 9
0 0 0
0 1 0
0 2 2
1 0 2
1 1 1
1 2 0
2 0 0
2 1 3
2 2 3
2 0 42 0 9
0 0 2
0 1 0
0 2 1
1 0 3
1 1 1
1 2 0
2 0 3
2 1 0
2 2 0
2 18 35 0 9
0 0 2
0 1 0
0 2 0
1 0 2
1 1 0
1 2 0
2 0 2
2 1 2
2 2 2
2 1 5 0 9
0 0 3
0 1 1
0 2 0
1 0 1
1 1 0
1 2 0
2 0 3
2 1 0
2 2 2
2 55 88 0 9
0 0 1
0 1 3
0 2 0
1 0 3
1 1 0
1 2 2
2 0 0
2 1 3
2 2 0
2 52 80 0 9
0 0 0
0 1 0
0 2 1
1 0 2
1 1 0
1 2 2
2 0 2
2 1 2
2 2 0
2 8 27 0 9
0 0 0
0 1 2
0 2 0
1 0 0
1 1 0
1 2 3
2 0 3
2 1 2
2 2 1
2 24 77 0 9
0 0 0
0 1 0
0 2 1
1 0 0
1 1 3
1 2 3
2 0 0
2 1 3
2 2 3
2 62 91 0 9
0 0 0
0 1 3
0 2 0
1 0 3
1 1 1
1 2 3
2 0 1
2 1 0
2 2 0
2 37 47 0 9
0 0 3
0 1 0
0 2 3
1 0 2
1 1 0
1 2 2
2 0 3
2 1 0
2 2 0
2 9 44 0 9
0 0 3
0 1 0
0 2 3
1 0 0
1 1 2
1 2 0
2 0 0
2 1 1
2 2 2
2 32 77 0 9
0 0 3
0 1 1
0 2 0
1 0 0
1 1 2
1 2 3
2 0 0
2 1 3
2 2 0
2 30 52 0 9
0 0 0
0 1 3
0 2 3
1 0 1
1 1 0
1 2 1
2 0 0
2 1 0
2 2 1
2 3 42 0 9
0 0 0
0 1 3
0 2 0
1 0 1
1 1 0
1 2 0
2 0 2
2 1 1
2 2 1
2 2 24 0 9
0 0 0
0 1 0
0 2 0
1 0 0
1 1 2
1 2 3
2 0 3
2 1 1
2 2 1
2 27 36 0 9
0 0 1
0 1 0
0 2 0
1 0 2
1 1 2
1 2 0
2 0 0
2 1 2
2 2 1
2 3 21 0 9
0 0 0
0 1 3
0 2 2
1 0 0
1 1 2
1 2 0
2 0 2
2 1 0
2 2 3
2 81 83 0 9
0 0 0
0 1 3
0 2 0
1 0 2
1 1 1
1 2 0
2 0 0
2 1 3
2 2 2
2 51 52 0 9
0 0 0
0 1 0
0 2 0
1 0 3
1 1 0
1 2 3
2 0 3
2 1 2
2 2 1
2 21 54 0 9
0 0 0
0 1 1
0 2 0
1 0 2
1 1 2
1 2 1
2 0 1
2 1 0
2 2 0
2 20 87 0 9
0 0 0
0 1 3
0 2 2
1 0 2
1 1 0
1 2 1
2 0 2
2 1 0
2 2 0
2 0 76 0 9
0 0 0
0 1 0
0 2 2
1 0 2
1 1 0
1 2 3
2 0 3
2 1 0
2 2 2
2 12 41 0 9
0 0 0
0 1 3
0 2 0
1 0 3
1 1 0
1 2 1
2 0 3
2 1 0
2 2 2
2 28 51 0 9
0 0 0
0 1 1
0 2 3
1 0 0
1 1 0
1 2 1
2 0 3
2 1 0
2 2 2
2 61 94 0 9
0 0 0
0 1 2
0 2 3
1 0 2
1 1 3
1 2 0
2 0 0
2 1 0
2 2 2
2 23 34 0 9
0 0 3
0 1 0
0 2 1
1 0 0
1 1 2
1 2 0
2 0 1
2 1 0
2 2 2
2 71 81 0 9
0 0 0
0 1 0
0 2 0
1 0 1
1 1 3
1 2 0
2 0 2
2 1 3
2 2 2
2 0 6 0 9
0 0 2
0 1 3
0 2 0
1 0 3
1 1 0
1 2 3
2 0 0
2 1 2
2 2 0
2 4 71 0 9
0 0 0
0 1 1
0 2 1
1 0 0
1 1 2
1 2 3
2 0 0
2 1 3
2 2 0
2 59 91 0 9
0 0 0
0 1 0
0 2 3
1 0 3
1 1 0
1 2 3
2 0 1
2 1 3
2 2 0
2 80 81 0 9
0 0 3
0 1 0
0 2 3
1 0 2
1 1 1
1 2 0
2 0 3
2 1 0
2 2 0
2 67 82 0 9
0 0 2
0 1 0
0 2 2
1 0 3
1 1 0
1 2 0
2 0 1
2 1 1
2 2 0
2 5 82 0 9
0 0 0
0 1 0
0 2 2
1 0 2
1 1 1
1 2 0
2 0 0
2 1 1
2 2 3
2 2 10 0 9
0 0 3
0 1 3
0 2 0
1 0 0
1 1 1
1 2 0
2 0 1
2 1 2
2 2 0
2 6 9 0 9
0 0 1
0 1 0
0 2 1
1 0 2
1 1 2
1 2 0
2 0 0
2 1 1
2 2 0
2 40 83 0 9
0 0 0
0 1 1
0 2 0
1 0 3
1 1 2
1 2 0
2 0 0
2 1 1
2 2 1
2 18 92 0 9
0 0 3
0 1 0
0 2 2
1 0 2
1 1 2
1 2 0
2 0 0
2 1 2
2 2 0
2 5 90 0 9
0 0 0
0 1 2
0 2 0
1 0 2
1 1 0
1 2 1
2 0 3
2 1 0
2 2 1
2 16 41 0 9
0 0 0
0 1 1
0 2 3
1 0 0
1 1 2
1 2 3
2 0 0
2 1 2
2 2 0
2 41 56 0 9
0 0 3
0 1 2
0 2 0
1 0 1
1 1 0
1 2 3
2 0 2
2 1 0
2 2 0
2 33 53 0 9
0 0 2
0 1 0
0 2 3
1 0 0
1 1 0
1 2 2
2 0 1
2 1 2
2 2 0
2 48 98 0 9
0 0 0
0 1 0
0 2 2
1 0 3
1 1 3
1 2 1
2 0 0
2 1 1
2 2 0
2 21 45 0 9
0 0 1
0 1 0
0 2 1
1 0 0
1 1 0
1 2 1
2 0 2
2 1 2
2 2 0
2 9 72 0 9
0 0 0
0 1 3
0 2 0
1 0 1
1 1 2
1 2 3
2 0 0
2 1 1
2 2 0
2 64 94 0 9
0 0 2
0 1 3
0 2 1
1 0 0
1 1 0
1 2 1
2 0 0
2 1 0
2 2 2
2 30 95 0 9
0 0 0
0 1 0
0 2 1
1 0 3
1 1 3
1 2 1
2 0 3
2 1 0
2 2 0
2 2 26 0 9
0 0 2
0 1 2
0 2 0
1 0 3
1 1 2
1 2 3
2 0 0
2 1 0
2 2 0
2 36 68 0 9
0 0 1
0 1 1
0 2 3
1 0 0
1 1 0
1 2 0
2 0 0
2 1 1
2 2 1
2 9 26 0 9
0 0 0
0 1 2
0 2 0
1 0 0
1 1 2
1 2 3
2 0 1
2 1 0
2 2 1
2 50 69 0 9
0 0 0
0 1 0
0 2 1
1 0 2
1 1 0
1 2 1
2 0 2
2 1 2
2 2 0
2 61 78 0 9
0 0 1
0 1 0
0 2 0
1 0 0
1 1 1
1 2 3
2 0 3
2 1 0
2 2 1
2 42 45 0 9
0 0 3
0 1 0
0 2 1
1 0 1
1 1 0
1 2 0
2 0 0
2 1 3
2 2 1
2 31 90 0 9
0 0 3
0 1 1
0 2 0
1 0 3
1 1 0
1 2 0
2 0 2
2 1 2
2 2 0
2 25 89 0 9
0 0 0
0 1 0
0 2 2
1 0 0
1 1 1
1 2 2
2 0 1
2 1 0
2 2 3
2 77 82 0 9
0 0 2
0 1 2
0 2 0
1 0 0
1 1 2
1 2 0
2 0 0
2 1 1
2 2 3
2 27 72 0 9
0 0 0
0 1 2
0 2 0
1 0 0
1 1 0
1 2 2
2 0 1
2 1 2
2 2 2
2 53 83 0 9
0 0 0
0 1 3
0 2 0
1 0 1
1 1 1
1 2 0
2 0 0
2 1 2
2 2 3
2 72 76 0 9
0 0 1
0 1 3
0 2 0
1 0 0
1 1 3
1 2 0
2 0 0
2 1 2
2 2 1
2 27 98 0 9
0 0 0
0 1 0
0 2 0
1 0 2
1 1 2
1 2 1
2 0 3
2 1 1
2 2 0
2 71 72 0 9
0 0 2
0 1 0
0 2 0
1 0 3
1 1 2
1 2 0
2 0 0
2 1 1
2 2 3
2 12 22 0 9
0 0 2
0 1 0
0 2 1
1 0 1
1 1 0
1 2 1
2 0 0
2 1 0
2 2 2
2 27 54 0 9
0 0 0
0 1 0
0 2 3
1 0 1
1 1 2
1 2 0
2 0 0
2 1 1
2 2 3
2 28 63 0 9
0 0 0
0 1 0
0 2 0
1 0 3
1 1 2
1 2 2
2 0 1
2 1 1
2 2 0
2 17 81 0 9
0 0 2
0 1 1
0 2 0
1 0 0
1 1 0
1 2 3
2 0 3
2 1 0
2 2 1
2 63 91 0 9
0 0 1
0 1 2
0 2 3
1 0 1
1 1 0
1 2 1
2 0 0
2 1 0
2 2 0
2 37 39 0 9
0 0 0
0 1 2
0 2 0
1 0 0
1 1 3
1 2 3
2 0 1
2 1 0
2 2 2
2 5 32 0 9
0 0 3
0 1 1
0 2 2
1 0 0
1 1 2
1 2 0
2 0 0
2 1 0
2 2 1
2 22 23 0 9
0 0 3
0 1 1
0 2 0
1 0 0
1 1 2
1 2 3
2 0 0
2 1 2
2 2 0
2 18 96 0 9
0 0 2
0 1 1
0 2 0
1 0 2
1 1 0
1 2 0
2 0 3
2 1 0
2 2 1
2 9 80 0 9
0 0 0
0 1 1
0 2 0
1 0 1
1 1 0
1 2 1
2 0 1
2 1 2
2 2 0
2 92 95 0 9
0 0 2
0 1 3
0 2 0
1 0 0
1 1 2
1 2 1
2 0 0
2 1 1
2 2 0
2 29 62 0 9
0 0 0
0 1 2
0 2 0
1 0 2
1 1 1
1 2 2
2 0 1
2 1 0
2 2 0
2 21 72 0 9
0 0 1
0 1 1
0 2 0
1 0 0
1 1 3
1 2 0
2 0 2
2 1 0
2 2 1
2 34 58 0 9
0 0 0
0 1 2
0 2 0
1 0 0
1 1 2
1 2 0
2 0 2
2 1 3
2 2 3
2 9 19 0 9
0 0 0
0 1 3
0 2 0
1 0 2
1 1 0
1 2 1
2 0 1
2 1 0
2 2 3
2 3 20 0 9
0 0 0
0 1 0
0 2 2
1 0 3
1 1 2
1 2 2
2 0 1
2 1 0
2 2 0
2 34 54 0 9
0 0 2
0 1 0
0 2 0
1 0 1
1 1 0
1 2 0
2 0 3
2 1 3
2 2 1
2 9 71 0 9
0 0 0
0 1 0
0 2 2
1 0 1
1 1 0
1 2 1
2 0 1
2 1 0
2 2 2
2 55 89 0 9
0 0 3
0 1 0
0 2 0
1 0 3
1 1 0
1 2 1
2 0 2
2 1 2
2 2 0
2 31 45 0 9
0 0 3
0 1 1
0 2 0
1 0 1
1 1 0
1 2 0
2 0 0
2 1 3
2 2 3
2 32 55 0 9
0 0 2
0 1 0
0 2 1
1 0 0
1 1 1
1 2 0
2 0 2
2 1 0
2 2 3
2 1 23 0 9
0 0 0
0 1 0
0 2 3
1 0 0
1 1 2
1 2 0
2 0 1
2 1 2
2 2 1
2 69 92 0 9
0 0 1
0 1 0
0 2 3
1 0 3
1 1 3
1 2 0
2 0 2
2 1 0
2 2 0
2 42 81 0 9
0 0 0
0 1 0
0 2 1
1 0 3
1 1 0
1 2 1
2 0 1
2 1 1
2 2 0
2 5 72 0 9
0 0 0
0 1 3
0 2 0
1 0 2
1 1 3
1 2 0
2 0 2
2 1 0
2 2 2
2 43 44 0 9
0 0 0
0 1 1
0 2 3
1 0 3
1 1 0
1 2 2
2 0 3
2 1 0
2 2 0
2 74 96 0 9
0 0 3
0 1 0
0 2 1
1 0 0
1 1 0
1 2 2
2 0 2
2 1 0
2 2 1
2 8 15 0 9
0 0 0
0 1 2
0 2 0
1 0 1
1 1 2
1 2 1
2 0 0
2 1 2
2 2 0
2 29 82 0 9
0 0 2
0 1 3
0 2 2
1 0 0
1 1 2
1 2 0
2 0 0
2 1 3
2 2 0
2 37 98 0 9
0 0 1
0 1 2
0 2 0
1 0 3
1 1 0
1 2 2
2 0 1
2 1 0
2 2 0
2 36 91 0 9
0 0 2
0 1 0
0 2 0
1 0 1
1 1 0
1 2 2
2 0 2
2 1 0
2 2 3
2 64 73 0 9
0 0 0
0 1 0
0 2 0
1 0 1
1 1 3
1 2 1
2 0 3
2 1 2
2 2 0
2 31 33 0 9
0 0 2
0 1 0
0 2 0
1 0 2
1 1 2
1 2 2
2 0 3
2 1 0
2 2 0
2 13 28 0 9
0 0 1
0 1 0
0 2 1
1 0 0
1 1 1
1 2 0
2 0 0
2 1 3
2 2 2
2 32 50 0 9
0 0 0
0 1 1
0 2 0
1 0 0
1 1 2
1 2 1
2 0 2
2 1 0
2 2 3
2 26 78 0 9
0 0 0
0 1 0
0 2 2
1 0 0
1 1 1
1 2 0
2 0 3
2 1 2
2 2 1
2 97 98 0 9
0 0 0
0 1 0
0 2 3
1 0 1
1 1 3
1 2 0
2 0 0
2 1 3
2 2 3
2 62 99 0 9
0 0 2
0 1 1
0 2 0
1 0 0
1 1 2
1 2 0
2 0 3
2 1 0
2 2 3
2 5 11 0 9
0 0 3
0 1 1
0 2 0
1 0 2
1 1 2
1 2 0
2 0 0
2 1 0
2 2 2
2 8 24 0 9
0 0 1
0 1 0
0 2 0
1 0 1
1 1 3
1 2 0
2 0 0
2 1 2
2 2 3
2 10 41 0 9
0 0 0
0 1 3
0 2 0
1 0 0
1 1 2
1 2 1
2 0 2
2 1 3
2 2 0
2 12 18 0 9
0 0 0
0 1 0
0 2 2
1 0 2
1 1 3
1 2 3
2 0 0
2 1 0
2 2 2
2 31 99 0 9
0 0 0
0 1 1
0 2 1
1 0 0
1 1 1
1 2 1
2 0 3
2 1 0
2 2 0
2 3 84 0 9
0 0 2
0 1 0
0 2 3
1 0 1
1 1 1
1 2 2
2 0 0
2 1 0
2 2 0
2 46 47 0 9
0 0 2
0 1 0
0 2 0
1 0 0
1 1 2
1 2 1
2 0 3
2 1 0
2 2 2
2 5 83 0 9
0 0 1
0 1 0
0 2 0
1 0 0
1 1 1
1 2 0
2 0 3
2 1 1
2 2 2
2 19 95 0 9
0 0 0
0 1 0
0 2 2
1 0 0
1 1 2
1 2 3
2 0 0
2 1 2
2 2 1
2 89 96 0 9
0 0 2
0 1 1
0 2 3
1 0 2
1 1 1
1 2 0
2 0 0
2 1 0
2 2 0
2 16 18 0 9
0 0 0
0 1 0
0 2 3
1 0 3
1 1 2
1 2 0
2 0 0
2 1 2
2 2 2
2 61 91 0 9
0 0 2
0 1 3
0 2 1
1 0 0
1 1 0
1 2 0
2 0 3
2 1 3
2 2 0
2 56 88 0 9
0 0 2
0 1 2
0 2 0
1 0 2
1 1 0
1 2 0
2 0 2
2 1 0
2 2 2
2 16 26 0 9
0 0 2
0 1 3
0 2 0
1 0 2
1 1 3
1 2 0
2 0 0
2 1 0
2 2 3
2 36 58 0 9
0 0 1
0 1 1
0 2 2
1 0 0
1 1 3
1 2 0
2 0 0
2 1 3
2 2 0
2 7 62 0 9
0 0 1
0 1 3
0 2 0
1 0 0
1 1 0
1 2 2
2 0 2
2 1 1
2 2 0
2 48 84 0 9
0 0 0
0 1 0
0 2 3
1 0 2
1 1 0
1 2 0
2 0 2
2 1 2
2 2 1
2 5 23 0 9
0 0 0
0 1 0
0 2 1
1 0 0
1 1 2
1 2 1
2 0 1
2 1 0
2 2 3
2 33 82 0 9
0 0 0
0 1 2
0 2 2
1 0 0
1 1 0
1 2 3
2 0 3
2 1 0
2 2 1
2 27 99 0 9
0 0 3
0 1 3
0 2 0
1 0 0
1 1 2
1 2 1
2 0 0
2 1 0
2 2 3
2 1 10 0 9
0 0 3
0 1 0
0 2 0
1 0 2
1 1 2
1 2 0
2 0 2
2 1 1
2 2 0
2 35 89 0 9
0 0 1
0 1 2
0 2 0
1 0 3
1 1 2
1 2 2
2 0 0
2 1 0
2 2 0
2 0 4 0 9
0 0 2
0 1 0
0 2 2
1 0 1
1 1 0
1 2 3
2 0 1
2 1 0
2 2 0
2 1 87 0 9
0 0 0
0 1 0
0 2 0
1 0 3
1 1 2
1 2 2
2 0 3
2 1 1
2 2 0
2 0 86 0 9
0 0 0
0 1 0
0 2 0
1 0 0
1 1 2
1 2 2
2 0 3
2 1 3
2 2 3
2 11 34 0 9
0 0 1
0 1 0
0 2 0
1 0 1
1 1 3
1 2 0
2 0 1
2 1 2
2 2 0
2 37 86 0 9
0 0 2
0 1 2
0 2 0
1 0 1
1 1 3
1 2 0
2 0 0
2 1 2
2 2 0
2 23 37 0 9
0 0 2
0 1 1
0 2 3
1 0 3
1 1 0
1 2 0
2 0 0
2 1 0
2 2 1
2 41 73 0 9
0 0 3
0 1 0
0 2 2
1 0 0
1 1 0
1 2 0
2 0 1
2 1 2
2 2 1
2 31 60 0 9
0 0 1
0 1 2
0 2 1
1 0 1
1 1 0
1 2 0
2 0 2
2 1 0
2 2 0
2 22 55 0 9
0 0 2
0 1 0
0 2 1
1 0 1
1 1 0
1 2 3
2 0 0
2 1 0
2 2 1
2 62 68 0 9
0 0 0
0 1 3
0 2 0
1 0 2
1 1 3
1 2 3
2 0 0
2 1 2
2 2 0
2 43 48 0 9
0 0 1
0 1 0
0 2 0
1 0 1
1 1 0
1 2 0
2 0 2
2 1 1
2 2 1
2 82 98 0 9
0 0 1
0 1 1
0 2 1
1 0 2
1 1 0
1 2 0
2 0 0
2 1 0
2 2 3
2 33 64 0 9
0 0 0
0 1 1
0 2 2
1 0 3
1 1 0
1 2 1
2 0 0
2 1 0
2 2 1
2 25 87 0 9
0 0 1
0 1 2
0 2 0
1 0 3
1 1 0
1 2 0
2 0 3
2 1 1
2 2 0
2 10 37 0 9
0 0 3
0 1 0
0 2 1
1 0 0
1 1 2
1 2 3
2 0 0
2 1 3
2 2 0
2 41 63 0 9
0 0 0
0 1 0
0 2 1
1 0 3
1 1 1
1 2 0
2 0 1
2 1 0
2 2 1
2 29 86 0 9
0 0 3
0 1 1
0 2 1
1 0 2
1 1 0
1 2 0
2 0 0
2 1 0
2 2 2
2 11 98 0 9
0 0 1
0 1 1
0 2 2
1 0 0
1 1 0
1 2 0
2 0 2
2 1 0
2 2 1
2 41 58 0 9
0 0 0
0 1 3
0 2 3
1 0 0
1 1 1
1 2 3
2 0 0
2 1 0
2 2 3
2 12 80 0 9
0 0 3
0 1 0
0 2 0
1 0 1
1 1 1
1 2 0
2 0 3
2 1 0
2 2 2
2 59 94 0 9
0 0 3
0 1 0
0 2 0
1 0 3
1 1 0
1 2 0
2 0 1
2 1 3
2 2 2
2 17 99 0 9
0 0 0
0 1 1
0 2 3
1 0 0
1 1 3
1 2 0
2 0 0
2 1 2
2 2 3
2 17 40 0 9
0 0 0
0 1 3
0 2 0
1 0 3
1 1 0
1 2 1
2 0 0
2 1 2
2 2 2
2 2 81 0 9
0 0 0
0 1 0
0 2 2
1 0 1
1 1 3
1 2 2
2 0 2
2 1 0
2 2 0
2 31 78 0 9
0 0 1
0 1 0
0 2 1
1 0 0
1 1 3
1 2 0
2 0 0
2 1 3
2 2 1
2 11 13 0 9
0 0 3
0 1 0
0 2 0
1 0 0
1 1 1
1 2 3
2 0 2
2 1 0
2 2 3
2 8 92 0 9
0 0 0
0 1 1
0 2 0
1 0 1
1 1 0
1 2 2
2 0 0
2 1 1
2 2 2
2 81 88 0 9
0 0 0
0 1 0
0 2 0
1 0 0
1 1 2
1 2 1
2 0 2
2 1 1
2 2 3
2 51 68 0 9
0 0 0
0 1 0
0 2 2
1 0 3
1 1 3
1 2 0
2 0 2
2 1 2
2 2 0
2 26 64 0 9
0 0 0
0 1 2
0 2 3
1 0 3
1 1 0
1 2 0
2 0 1
2 1 0
2 2 2
2 51 84 0 9
0 0 1
0 1 0
0 2 1
1 0 1
1 1 0
1 2 0
2 0 1
2 1 0
2 2 1
2 5 79 0 9
0 0 3
0 1 1
0 2 0
1 0 0
1 1 2
1 2 0
2 0 1
2 1 2
2 2 0
2 0 15 0 9
0 0 2
0 1 0
0 2 0
1 0 2
1 1 0
1 2 2
2 0 2
2 1 2
2 2 0
2 51 73 0 9
0 0 0
0 1 0
0 2 1
1 0 2
1 1 3
1 2 2
2 0 0
2 1 2
2 2 0
2 65 87 0 9
0 0 0
0 1 2
0 2 3
1 0 3
1 1 0
1 2 0
2 0 1
2 1 0
2 2 1
2 18 46 0 9
0 0 3
0 1 0
0 2 2
1 0 1
1 1 0
1 2 3
2 0 0
2 1 0
2 2 3
2 58 67 0 9
0 0 2
0 1 0
0 2 2
1 0 1
1 1 2
1 2 0
2 0 1
2 1 0
2 2 0
2 26 87 0 9
0 0 1
0 1 0
0 2 2
1 0 2
1 1 0
1 2 1
2 0 0
2 1 1
2 2 0
2 40 67 0 9
0 0 3
0 1 0
0 2 1
1 0 3
1 1 2
1 2 2
2 0 0
2 1 0
2 2 0
2 33 87 0 9
0 0 3
0 1 3
0 2 2
1 0 0
1 1 0
1 2 0
2 0 0
2 1 2
2 2 3
2 4 52 0 9
0 0 0
0 1 3
0 2 0
1 0 0
1 1 2
1 2 3
2 0 0
2 1 3
2 2 2
2 7 27 0 9
0 0 0
0 1 1
0 2 0
1 0 0
1 1 0
1 2 2
2 0 3
2 1 2
2 2 3
2 63 84 0 9
0 0 0
0 1 0
0 2 0
1 0 0
1 1 3
1 2 2
2 0 3
2 1 2
2 2 3
2 19 92 0 9
0 0 1
0 1 0
0 2 0
1 0 2
1 1 3
1 2 3
2 0 0
2 1 3
2 2 0
2 18 93 0 9
0 0 2
0 1 0
0 2 2
1 0 0
1 1 0
1 2 2
2 0 0
2 1 1
2 2 2
2 48 95 0 9
0 0 0
0 1 1
0 2 1
1 0 0
1 1 2
1 2 1
2 0 0
2 1 2
2 2 0
2 40 56 0 9
0 0 1
0 1 0
0 2 0
1 0 2
1 1 0
1 2 1
2 0 0
2 1 3
2 2 1
2 70 76 0 9
0 0 0
0 1 0
0 2 1
1 0 1
1 1 3
1 2 0
2 0 1
2 1 0
2 2 2
2 18 84 0 9
0 0 3
0 1 0
0 2 2
1 0 2
1 1 1
1 2 0
2 0 0
2 1 1
2 2 0
2 33 63 0 9
0 0 2
0 1 0
0 2 1
1 0 0
1 1 0
1 2 1
2 0 3
2 1 3
2 2 0
2 38 84 0 9
0 0 0
0 1 0
0 2 2
1 0 3
1 1 0
1 2 1
2 0 3
2 1 1
2 2 0
2 56 69 0 9
0 0 2
0 1 0
0 2 1
1 0 3
1 1 1
1 2 0
2 0 0
2 1 2
2 2 0
2 37 75 0 9
0 0 3
0 1 0
0 2 2
1 0 0
1 1 0
1 2 2
2 0 2
2 1 0
2 2 2
2 12 32 0 9
0 0 2
0 1 3
0 2 2
1 0 0
1 1 3
1 2 0
2 0 0
2 1 2
2 2 0
2 89 95 0 9
0 0 0
0 1 0
0 2 3
1 0 3
1 1 3
1 2 0
2 0 1
2 1 1
2 2 0
2 12 69 0 9
0 0 0
0 1 1
0 2 3
1 0 3
1 1 0
1 2 0
2 0 2
2 1 2
2 2 0
2 42 84 0 9
0 0 1
0 1 0
0 2 2
1 0 3
1 1 1
1 2 0
2 0 0
2 1 0
2 2 3
2 48 97 0 9
0 0 0
0 1 1
0 2 0
1 0 3
1 1 1
1 2 1
2 0 0
2 1 1
2 2 0
2 64 76 0 9
0 0 2
0 1 1
0 2 0
1 0 1
1 1 2
1 2 0
2 0 1
2 1 0
2 2 0
2 8 12 0 9
0 0 2
0 1 1
0 2 0
1 0 1
1 1 0
1 2 2
2 0 1
2 1 0
2 2 0
2 33 86 0 9
0 0 1
0 1 1
0 2 0
1 0 2
1 1 3
1 2 0
2 0 0
2 1 0
2 2 1
2 50 80 0 9
0 0 1
0 1 3
0 2 1
1 0 2
1 1 0
1 2 1
2 0 0
2 1 0
2 2 0
2 44 52 0 9
0 0 0
0 1 1
0 2 2
1 0 2
1 1 0
1 2 0
2 0 1
2 1 0
2 2 3
2 10 60 0 9
0 0 0
0 1 2
0 2 3
1 0 0
1 1 1
1 2 0
2 0 3
2 1 0
2 2 1
2 0 25 0 9
0 0 2
0 1 0
0 2 0
1 0 1
1 1 3
1 2 3
2 0 0
2 1 0
2 2 3
2 31 62 0 9
0 0 1
0 1 3
0 2 3
1 0 1
1 1 1
1 2 0
2 0 0
2 1 0
2 2 0
2 53 98 0 9
0 0 0
0 1 0
0 2 3
1 0 0
1 1 3
1 2 3
2 0 2
2 1 0
2 2 3
2 23 63 0 9
0 0 2
0 1 0
0 2 1
1 0 1
1 1 2
1 2 1
2 0 0
2 1 0
2 2 0
2 13 59 0 9
0 0 1
0 1 2
0 2 3
1 0 0
1 1 0
1 2 1
2 0 2
2 1 0
2 2 0
2 50 77 0 9
0 0 0
0 1 3
0 2 0
1 0 3
1 1 0
1 2 2
2 0 0
2 1 1
2 2 2
2 10 40 0 9
0 0 2
0 1 3
0 2 0
1 0 3
1 1 0
1 2 3
2 0 1
2 1 0
2 2 0
2 9 74 0 9
0 0 2
0 1 1
0 2 2
1 0 0
1 1 0
1 2 0
2 0 0
2 1 2
2 2 1
2 59 76 0 9
0 0 0
0 1 3
0 2 2
1 0 0
1 1 3
1 2 3
2 0 0
2 1 0
2 2 3
2 32 96 0 9
0 0 0
0 1 3
0 2 0
1 0 0
1 1 1
1 2 1
2 0 1
2 1 3
2 2 0
2 45 86 0 9
0 0 0
0 1 0
0 2 3
1 0 1
1 1 2
1 2 0
2 0 3
2 1 2
2 2 0
2 8 30 0 9
0 0 2
0 1 0
0 2 3
1 0 2
1 1 0
1 2 2
2 0 0
2 1 2
2 2 0
2 10 99 0 9
0 0 0
0 1 2
0 2 0
1 0 2
1 1 2
1 2 3
2 0 3
2 1 0
2 2 0
2 4 14 0 9
0 0 2
0 1 2
0 2 0
1 0 0
1 1 2
1 2 0
2 0 2
2 1 0
2 2 2
2 29 31 0 9
0 0 0
0 1 0
0 2 1
1 0 3
1 1 1
1 2 2
2 0 0
2 1 3
2 2 0
2 25 72 0 9
0 0 0
0 1 0
0 2 2
1 0 2
1 1 3
1 2 0
2 0 0
2 1 3
2 2 1
2 80 88 0 9
0 0 1
0 1 2
0 2 0
1 0 0
1 1 2
1 2 0
2 0 0
2 1 2
2 2 3
2 70 93 0 9
0 0 2
0 1 2
0 2 0
1 0 1
1 1 2
1 2 2
2 0 0
2 1 0
2 2 0
2 26 71 0 9
0 0 1
0 1 0
0 2 0
1 0 2
1 1 2
1 2 0
2 0 2
2 1 3
2 2 0
2 25 66 0 9
0 0 0
0 1 2
0 2 0
1 0 1
1 1 2
1 2 2
2 0 0
2 1 3
2 2 0
2 26 95 0 9
0 0 0
0 1 1
0 2 2
1 0 2
1 1 0
1 2 0
2 0 0
2 1 3
2 2 2
2 4 82 0 9
0 0 1
0 1 2
0 2 3
1 0 3
1 1 0
1 2 1
2 0 0
2 1 0
2 2 0
2 35 56 0 9
0 0 0
0 1 3
0 2 0
1 0 0
1 1 0
1 2 2
2 0 2
2 1 1
2 2 1
2 53 67 0 9
0 0 0
0 1 1
0 2 1
1 0 0
1 1 3
1 2 1
2 0 0
2 1 0
2 2 2
2 44 65 0 9
0 0 2
0 1 1
0 2 2
1 0 1
1 1 0
1 2 0
2 0 0
2 1 0
2 2 1
2 8 86 0 9
0 0 1
0 1 1
0 2 0
1 0 2
1 1 0
1 2 0
2 0 2
2 1 0
2 2 3
2 91 93 0 9
0 0 1
0 1 3
0 2 1
1 0 3
1 1 0
1 2 3
2 0 0
2 1 0
2 2 0
2 79 88 0 9
0 0 1
0 1 1
0 2 0
1 0 0
1 1 0
1 2 2
2 0 0
2 1 2
2 2 2
2 4 90 0 9
0 0 0
0 1 0
0 2 2
1 0 2
1 1 0
1 2 0
2 0 3
2 1 1
2 2 3
2 34 66 0 9
0 0 0
0 1 3
0 2 3
1 0 1
1 1 3
1 2 0
2 0 0
2 1 2
2 2 0
2 3 25 0 9
0 0 0
0 1 2
0 2 3
1 0 3
1 1 2
1 2 0
2 0 0
2 1 0
2 2 1
2 65 97 0 9
0 0 2
0 1 0
0 2 1
1 0 3
1 1 0
1 2 2
2 0 0
2 1 0
2 2 2
2 6 33 0 9
0 0 1
0 1 3
0 2 1
1 0 3
1 1 0
1 2 3
2 0 0
2 1 0
2 2 0
2 32 53 0 9
0 0 1
0 1 1
0 2 0
1 0 0
1 1 3
1 2 3
2 0 0
2 1 0
2 2 2
2 41 91 0 9
0 0 1
0 1 0
0 2 3
1 0 0
1 1 0
1 2 3
2 0 2
2 1 0
2 2 3
2 96 97 0 9
0 0 0
0 1 0
0 2 3
1 0 0
1 1 0
1 2 2
2 0 1
2 1 2
2 2 2
2 7 35 0 9
0 0 3
0 1 2
0 2 0
1 0 0
1 1 3
1 2 3
2 0 0
2 1 3
2 2 0
2 7 18 0 9
0 0 0
0 1 1
0 2 1
1 0 0
1 1 1
1 2 0
2 0 3
2 1 1
2 2 0
2 3 68 0 9
0 0 0
0 1 1
0 2 2
1 0 0
1 1 1
1 2 2
2 0 0
2 1 0
2 2 1
2 72 96 0 9
0 0 3
0 1 1
0 2 3
1 0 1
1 1 0
1 2 0
2 0 0
2 1 3
2 2 0
2 7 82 0 9
0 0 2
0 1 2
0 2 3
1 0 2
1 1 0
1 2 3
2 0 0
2 1 0
2 2 0
2 2 29 0 9
0 0 0
0 1 0
0 2 0
1 0 2
1 1 1
1 2 1
2 0 2
2 1 2
2 2 0
2 12 51 0 9
0 0 0
0 1 3
0 2 1
1 0 2
1 1 0
1 2 2
2 0 1
2 1 0
2 2 0
2 22 46 0 9
0 0 3
0 1 2
0 2 0
1 0 3
1 1 0
1 2 1
2 0 1
2 1 0
2 2 0
2 63 95 0 9
0 0 2
0 1 0
0 2 0
1 0 1
1 1 3
1 2 1
2 0 1
2 1 0
2 2 0
2 10 75 0 9
0 0 0
0 1 0
0 2 3
1 0 3
1 1 3
1 2 3
2 0 2
2 1 0
2 2 0
2 62 72 0 9
0 0 0
0 1 2
0 2 0
1 0 0
1 1 2
1 2 1
2 0 0
2 1 1
2 2 2
2 49 87 0 9
0 0 1
0 1 1
0 2 0
1 0 2
1 1 1
1 2 3
2 0 0
2 1 0
2 2 0
2 33 50 0 9
0 0 0
0 1 2
0 2 0
1 0 0
1 1 3
1 2 0
2 0 2
2 1 3
2 2 2
2 52 55 0 9
0 0 3
0 1 3
0 2 0
1 0 3
1 1 1
1 2 1
2 0 0
2 1 0
2 2 0
2 56 90 0 9
0 0 0
0 1 1
0 2 1
1 0 0
1 1 1
1 2 0
2 0 0
2 1 1
2 2 1
2 46 67 0 9
0 0 1
0 1 1
0 2 0
1 0 3
1 1 1
1 2 2
2 0 0
2 1 0
2 2 0
2 24 68 0 9
0 0 0
0 1 3
0 2 1
1 0 3
1 1 0
1 2 1
2 0 0
2 1 2
2 2 0
2 5 70 0 9
0 0 3
0 1 2
0 2 0
1 0 2
1 1 0
1 2 3
2 0 2
2 1 0
2 2 0
2 69 77 0 9
0 0 3
0 1 3
0 2 2
1 0 2
1 1 0
1 2 0
2 0 0
2 1 1
2 2 0
2 20 86 0 9
0 0 0
0 1 2
0 2 0
1 0 1
1 1 0
1 2 2
2 0 2
2 1 0
2 2 2
2 26 74 0 9
0 0 1
0 1 0
0 2 0
1 0 2
1 1 1
1 2 0
2 0 1
2 1 3
2 2 0
2 62 70 0 9
0 0 3
0 1 0
0 2 0
1 0 3
1 1 0
1 2 3
2 0 1
2 1 2
2 2 0
2 33 40 0 9
0 0 0
0 1 1
0 2 3
1 0 3
1 1 0
1 2 0
2 0 0
2 1 3
2 2 3
2 76 93 0 9
0 0 3
0 1 0
0 2 0
1 0 0
1 1 1
1 2 1
2 0 3
2 1 1
2 2 0
2 24 88 0 9
0 0 0
0 1 0
0 2 0
1 0 0
1 1 3
1 2 3
2 0 1
2 1 2
2 2 2
2 4 20 0 9
0 0 3
0 1 3
0 2 0
1 0 2
1 1 0
1 2 2
2 0 3
2 1 0
2 2 0
2 65 67 0 9
0 0 3
0 1 0
0 2 0
1 0 3
1 1 0
1 2 0
2 0 1
2 1 1
2 2 2
2 12 99 0 9
0 0 0
0 1 2
0 2 2
1 0 0
1 1 1
1 2 0
2 0 2
2 1 0
2 2 3
2 40 96 0 9
0 0 3
0 1 0
0 2 1
1 0 0
1 1 0
1 2 3
2 0 0
2 1 2
2 2 3
2 79 89 0 9
0 0 2
0 1 0
0 2 0
1 0 0
1 1 3
1 2 2
2 0 1
2 1 0
2 2 3
2 15 52 0 9
0 0 0
0 1 0
0 2 0
1 0 0
1 1 1
1 2 3
2 0 3
2 1 2
2 2 1
2 32 59 0 9
0 0 1
0 1 0
0 2 0
1 0 3
1 1 0
1 2 2
2 0 0
2 1 2
2 2 3
2 29 46 0 9
0 0 1
0 1 1
0 2 0
1 0 0
1 1 2
1 2 0
2 0 2
2 1 0
2 2 2
2 14 25 0 9
0 0 0
0 1 0
0 2 3
1 0 0
1 1 2
1 2 1
2 0 1
2 1 0
2 2 1
2 18 73 0 9
0 0 3
0 1 0
0 2 1
1 0 0
1 1 0
1 2 2
2 0 1
2 1 3
2 2 0
2 60 82 0 9
0 0 0
0 1 0
0 2 0
1 0 2
1 1 3
1 2 3
2 0 0
2 1 3
2 2 2
2 4 72 0 9
0 0 3
0 1 0
0 2 2
1 0 1
1 1 0
1 2 0
2 0 1
2 1 0
2 2 1
2 55 71 0 9
0 0 2
0 1 0
0 2 0
1 0 0
1 1 2
1 2 0
2 0 2
2 1 3
2 2 1
2 39 64 0 9
0 0 0
0 1 0
0 2 2
1 0 1
1 1 0
1 2 1
2 0 3
2 1 3
2 2 0
2 40 51 0 9
0 0 3
0 1 0
0 2 0
1 0 1
1 1 0
1 2 3
2 0 2
2 1 3
2 2 0
2 2 74 0 9
0 0 1
0 1 0
0 2 0
1 0 2
1 1 0
1 2 0
2 0 1
2 1 3
2 2 3
2 41 76 0 9
0 0 3
0 1 0
0 2 1
1 0 1
1 1 0
1 2 0
2 0 3
2 1 0
2 2 2
2 7 87 0 9
0 0 0
0 1 0
0 2 1
1 0 3
1 1 1
1 2 0
2 0 2
2 1 0
2 2 2
2 32 47 0 9
0 0 1
0 1 0
0 2 1
1 0 3
1 1 3
1 2 1
2 0 0
2 1 0
2 2 0
2 68 70 0 9
0 0 1
0 1 2
0 2 3
1 0 0
1 1 0
1 2 3
2 0 2
2 1 0
2 2 0
2 17 20 0 9
0 0 0
0 1 2
0 2 2
1 0 0
1 1 2
1 2 0
2 0 0
2 1 1
2 2 2
2 24 67 0 9
0 0 0
0 1 1
0 2 0
1 0 2
1 1 3
1 2 2
2 0 0
2 1 0
2 2 1
2 6 24 0 9
0 0 0
0 1 3
0 2 3
1 0 1
1 1 0
1 2 1
2 0 0
2 1 0
2 2 2
2 42 57 0 9
0 0 0
0 1 0
0 2 0
1 0 2
1 1 3
1 2 2
2 0 3
2 1 3
2 2 0
2 7 50 0 9
0 0 0
0 1 2
0 2 3
1 0 1
1 1 3
1 2 0
2 0 0
2 1 0
2 2 3
2 36 40 0 9
0 0 0
0 1 2
0 2 0
1 0 3
1 1 3
1 2 3
2 0 3
2 1 0
2 2 0
2 36 54 0 9
0 0 3
0 1 0
0 2 1
1 0 1
1 1 0
1 2 0
2 0 0
2 1 2
2 2 2
2 71 98 0 9
0 0 0
0 1 0
0 2 3
1 0 0
1 1 2
1 2 3
2 0 0
2 1 3
2 2 3
2 19 58 0 9
0 0 3
0 1 0
0 2 3
1 0 0
1 1 1
1 2 0
2 0 1
2 1 0
2 2 1
2 58 73 0 9
0 0 2
0 1 0
0 2 0
1 0 1
1 1 2
1 2 1
2 0 1
2 1 0
2 2 0
2 8 9 0 9
0 0 1
0 1 3
0 2 0
1 0 1
1 1 0
1 2 0
2 0 1
2 1 0
2 2 2
2 88 93 0 9
0 0 0
0 1 3
0 2 2
1 0 0
1 1 3
1 2 0
2 0 0
2 1 2
2 2 1
2 17 58 0 9
0 0 3
0 1 0
0 2 0
1 0 3
1 1 1
1 2 0
2 0 1
2 1 1
2 2 0
2 0 37 0 9
0 0 0
0 1 0
0 2 2
1 0 3
1 1 0
1 2 0
2 0 3
2 1 2
2 2 3
2 55 86 0 9
0 0 0
0 1 1
0 2 3
1 0 1
1 1 2
1 2 0
2 0 0
2 1 3
2 2 0
2 2 50 0 9
0 0 1
0 1 1
0 2 0
1 0 0
1 1 3
1 2 3
2 0 3
2 1 0
2 2 0
2 25 61 0 9
0 0 0
0 1 1
0 2 0
1 0 1
1 1 0
1 2 3
2 0 1
2 1 0
2 2 2
2 51 71 0 9
0 0 1
0 1 2
0 2 0
1 0 0
1 1 3
1 2 2
2 0 0
2 1 0
2 2 2
2 26 38 0 9
0 0 3
0 1 3
0 2 0
1 0 0
1 1 2
1 2 2
2 0 1
2 1 0
2 2 0
2 12 74 0 9
0 0 1
0 1 1
0 2 2
1 0 2
1 1 0
1 2 1
2 0 0
2 1 0
2 2 0
2 14 17 0 9
0 0 0
0 1 2
0 2 1
1 0 0
1 1 0
1 2 0
2 0 3
2 1 2
2 2 1
2 10 27 0 9
0 0 3
0 1 1
0 2 0
1 0 1
1 1 2
1 2 1
2 0 0
2 1 0
2 2 0
2 8 26 0 9
0 0 2
0 1 0
0 2 2
1 0 0
1 1 3
1 2 3
2 0 0
2 1 3
2 2 0
2 46 93 0 9
0 0 3
0 1 0
0 2 2
1 0 0
1 1 2
1 2 0
2 0 3
2 1 2
2 2 0
1 0 512409557603043100 3
0 0
1 2
2 1
1 1 512409557603043100 3
0 3
1 2
2 0
1 2 512409557603043100 3
0 3
1 0
2 1
1 3 512409557603043100 3
0 0
1 0
2 1
1 4 512409557603043100 3
0 0
1 0
2 2
1 5 512409557603043100 3
0 1
1 0
2 1
1 6 512409557603043100 3
0 1
1 2
2 0
1 7 512409557603043100 3
0 0
1 0
2 0
1 8 512409557603043100 3
0 1
1 0
2 0
1 9 512409557603043100 3
0 0
1 2
2 1
1 10 512409557603043100 3
0 2
1 3
2 0
1 11 512409557603043100 3
0 0
1 1
2 0
1 12 512409557603043100 3
0 0
1 1
2 1
1 13 512409557603043100 3
0 2
1 0
2 1
1 14 512409557603043100 3
0 0
1 3
2 0
1 15 512409557603043100 3
0 2
1 2
2 0
1 16 512409557603043100 3
0 3
1 3
2 0
1 17 512409557603043100 3
0 0
1 1
2 3
1 18 512409557603043100 3
0 0
1 2
2 0
1 19 512409557603043100 3
0 0
1 0
2 0
1 20 512409557603043100 3
0 0
1 3
2 2
1 21 512409557603043100 3
0 0
1 3
2 0
1 22 512409557603043100 3
0 1
1 0
2 2
1 23 512409557603043100 3
0 0
1 1
2 0
1 24 512409557603043100 3
0 0
1 0
2 0
1 25 512409557603043100 3
0 0
1 0
2 0
1 26 512409557603043100 3
0 2
1 0
2 0
1 27 512409557603043100 3
0 0
1 1
2 0
1 28 512409557603043100 3
0 0
1 1
2 3
1 29 512409557603043100 3
0 0
1 1
2 2
1 30 512409557603043100 3
0 0
1 2
2 2
1 31 512409557603043100 3
0 0
1 3
2 3
1 32 512409557603043100 3
0 0
1 2
2 1
1 33 512409557603043100 3
0 1
1 0
2 3
1 34 512409557603043100 3
0 0
1 0
2 0
1 35 512409557603043100 3
0 1
1 1
2 0
1 36 512409557603043100 3
0 0
1 1
2 0
1 37 512409557603043100 3
0 1
1 0
2 2
1 38 512409557603043100 3
0 0
1 1
2 3
1 39 512409557603043100 3
0 1
1 0
2 2
1 40 512409557603043100 3
0 0
1 3
2 1
1 41 512409557603043100 3
0 0
1 2
2 1
1 42 512409557603043100 3
0 0
1 1
2 2
1 43 512409557603043100 3
0 1
1 0
2 0
1 44 512409557603043100 3
0 1
1 1
2 0
1 45 512409557603043100 3
0 2
1 0
2 0
1 46 512409557603043100 3
0 0
1 1
2 1
1 47 512409557603043100 3
0 0
1 0
2 2
1 48 512409557603043100 3
0 0
1 1
2 2
1 49 512409557603043100 3
0 0
1 1
2 0
1 50 512409557603043100 3
0 3
1 0
2 1
1 51 512409557603043100 3
0 0
1 0
2 1
1 52 512409557603043100 3
0 1
1 2
2 0
1 53 512409557603043100 3
0 1
1 2
2 0
1 54 512409557603043100 3
0 1
1 1
2 0
1 55 512409557603043100 3
0 2
1 2
2 0
1 56 512409557603043100 3
0 0
1 1
2 2
1 57 512409557603043100 3
0 0
1 2
2 0
1 58 512409557603043100 3
0 1
1 0
2 2
1 59 512409557603043100 3
0 0
1 1
2 2
1 60 512409557603043100 3
0 0
1 3
2 0
1 61 512409557603043100 3
0 3
1 0
2 1
1 62 512409557603043100 3
0 1
1 0
2 1
1 63 512409557603043100 3
0 2
1 0
2 2
1 64 512409557603043100 3
0 3
1 0
2 1
1 65 512409557603043100 3
0 1
1 0
2 3
1 66 512409557603043100 3
0 2
1 2
2 0
1 67 512409557603043100 3
0 0
1 0
2 3
1 68 512409557603043100 3
0 0
1 0
2 0
1 69 512409557603043100 3
0 2
1 0
2 0
1 70 512409557603043100 3
0 1
1 0
2 0
1 71 512409557603043100 3
0 1
1 0
2 1
1 72 512409557603043100 3
0 0
1 2
2 0
1 73 512409557603043100 3
0 0
1 2
2 1
1 74 512409557603043100 3
0 0
1 0
2 0
1 75 512409557603043100 3
0 1
1 0
2 0
1 76 512409557603043100 3
0 3
1 0
2 3
1 77 512409557603043100 3
0 3
1 0
2 2
1 78 512409557603043100 3
0 0
1 1
2 1
1 79 512409557603043100 3
0 0
1 1
2 0
1 80 512409557603043100 3
0 0
1 1
2 1
1 81 512409557603043100 3
0 2
1 0
2 2
1 82 512409557603043100 3
0 3
1 1
2 0
1 83 512409557603043100 3
0 1
1 0
2 1
1 84 512409557603043100 3
0 0
1 1
2 3
1 85 512409557603043100 3
0 0
1 1
2 0
1 86 512409557603043100 3
0 3
1 3
2 0
1 87 512409557603043100 3
0 0
1 0
2 1
1 88 512409557603043100 3
0 0
1 2
2 3
1 89 512409557603043100 3
0 1
1 1
2 0
1 90 512409557603043100 3
0 0
1 1
2 0
1 91 512409557603043100 3
0 3
1 1
2 0
1 92 512409557603043100 3
0 1
1 0
2 1
1 93 512409557603043100 3
0 0
1 1
2 2
1 94 512409557603043100 3
0 1
1 0
2 3
1 95 512409557603043100 3
0 0
1 1
2 2
1 96 512409557603043100 3
0 0
1 1
2 3
1 97 512409557603043100 3
0 2
1 3
2 0
1 98 512409557603043100 3
0 3
1 0
2 0
1 99 512409557603043100 3
0 3
1 1
2 0
0 65 0
